numero_plantas = 2;
numero_clientes = 2;
numero_dias = 2;
costos = [20.0, 30.0];         
capacidades = [200.0, 500.0];  
G = 50.0;                     
demanda = [| 50.0, 60.0         
           |100.0, 80.0|];
pagos = [90.0, 85.0];           
porcentaje_regimen_alto = [80.0, 80.0];
max_dias_consecutivos_regimen = [1, 2];